# Data for pyomo

set c := c1 c2 c3 c4;

set h := h1 h2 h3 h4;

set j := j1 j2;

set m := 
m1 
m2 
m3 
m4 
m5 
m6
;

set p :=
p1
p2
p3
p4
p5
p6
p7
p8
p9
p10
p11
p12
p13
p14
p15
p16
p17
p18
p19
p20
p21
p22
p23
p24
p25
p26
p27
p28
p29
p30
p31
p32
p33
p34
p35
p36
p37
p38
p39
p40
p41
p42
p43
p44
p45
p46
p47
p48
p49
p50
p51
p52
p53
p54
p55
p56
p57
p58
p59
p60
p61
p62
p63
p64
p65
p66
p67
p68
p69
p70
p71
p72
p73
p74
p75
p76
p77
p78
p79
p80
p81
p82
p83
p84
p85
p86
p87
p88
p89
p90
p91
p92
p93
p94
p95
p96
p97
p98
p99
p100
p101
p102
p103
p104
p105
p106
p107
p108
p109
p110
p111
p112
p113
p114
p115
p116
p117
p118
p119
p120
p121
p122
p123
p124
p125
;

param CIM :=
m1 2216.13
m2 16621.00
m3 5540.33
m4 2216.13
m5 16621.00
m6 5540.33
;

param FCAP :=
m1 4
m2 31
m3 10
m4 4
m5 31
m6 10
;

param TT1 :=
j1 1
j2 2
;

param TT3 :=
j1 1
j2 2
;


param U1 :=
c1 m1 j1 1040
c1 m2 j1 2600
c1 m3 j1 2600
c1 m4 j1 2900
c1 m5 j1 3500
c1 m6 j1 3500
c2 m1 j1 2600
c2 m2 j1 200
c2 m3 j1 2600
c2 m4 j1 2900
c2 m5 j1 3500
c2 m6 j1 3500
c3 m1 j1 1840
c3 m2 j1 2000
c3 m3 j1 2900
c3 m4 j1 2900
c3 m5 j1 3500
c3 m6 j1 3500
c4 m1 j1 1640
c4 m2 j1 1820
c4 m3 j1 2900
c4 m4 j1 2900
c4 m5 j1 3500
c4 m6 j1 3500
c1 m1 j2 520
c1 m2 j2 520
c1 m3 j2 520
c1 m4 j2 936
c1 m5 j2 1053
c1 m6 j2 1053
c2 m1 j2 520
c2 m2 j2 100
c2 m3 j2 520
c2 m4 j2 936
c2 m5 j2 1053
c2 m6 j2 1053
c3 m1 j2 520
c3 m2 j2 520
c3 m3 j2 936
c3 m4 j2 936
c3 m5 j2 1053
c3 m6 j2 1053
c4 m1 j2 520
c4 m2 j2 520
c4 m3 j2 936
c4 m4 j2 936
c4 m5 j2 1053
c4 m6 j2 1053
;

param U3 :=
m1 h1 j1 1910
m1 h2 j1 1910
m1 h3 j1 2910
m1 h4 j1 1910
m2 h1 j1 2910
m2 h2 j1 400
m2 h3 j1 1910
m2 h4 j1 1910
m3 h1 j1 2910
m3 h2 j1 2910
m3 h3 j1 2910
m3 h4 j1 2910
m4 h1 j1 2910
m4 h2 j1 2910
m4 h3 j1 2910
m4 h4 j1 2910
m5 h1 j1 2910
m5 h2 j1 2910
m5 h3 j1 2910
m5 h4 j1 2910
m6 h1 j1 2910
m6 h2 j1 2910
m6 h3 j1 2910
m6 h4 j1 2910
m1 h1 j2 910
m1 h2 j2 910
m1 h3 j2 910
m1 h4 j2 910
m2 h1 j2 910
m2 h2 j2 300
m2 h3 j2 910
m2 h4 j2 910
m3 h1 j2 1755
m3 h2 j2 1755
m3 h3 j2 1755
m3 h4 j2 1755
m4 h1 j2 1755
m4 h2 j2 1755
m4 h3 j2 1755
m4 h4 j2 1755
m5 h1 j2 1855
m5 h2 j2 1855
m5 h3 j2 1855
m5 h4 j2 1755
m6 h1 j2 1855
m6 h2 j2 1855
m6 h3 j2 1855
m6 h4 j2 1855
;

param INC :=
p1 c4 50 1
p2 c4 12 1
p3 c1 41 1
p4 c1 39 1
p5 c2 19 1
p6 c3 3 1
p7 c3 66 1
p8 c2 6 1
p9 c4 34 1
p10 c2 60 1
p11 c4 34 1
p12 c3 30 1
p13 c3 43 1
p14 c3 39 1
p15 c4 74 1
p16 c2 30 1
p17 c1 31 1
p18 c2 38 1
p19 c2 10 1
p20 c3 7 1
p21 c3 76 1
p22 c2 43 1
p23 c1 70 1
p24 c2 27 1
p25 c2 29 1
p26 c3 48 1
p27 c2 74 1
p28 c3 81 1
p29 c1 71 1
p30 c2 6 1
p31 c1 48 1
p32 c1 12 1
p33 c1 7 1
p34 c3 10 1
p35 c1 2 1
p36 c3 48 1
p37 c2 49 1
p38 c4 86 1
p39 c1 85 1
p40 c1 74 1
p41 c2 56 1
p42 c4 87 1
p43 c2 87 1
p44 c1 15 1
p45 c4 55 1
p46 c2 63 1
p47 c4 54 1
p48 c1 22 1
p49 c1 59 1
p50 c2 86 1
p51 c2 77 1
p52 c4 5 1
p53 c1 17 1
p54 c3 17 1
p55 c3 37 1
p56 c4 26 1
p57 c2 58 1
p58 c3 31 1
p59 c3 41 1
p60 c3 43 1
p61 c2 46 1
p62 c2 36 1
p63 c4 36 1
p64 c1 80 1
p65 c4 69 1
p66 c2 24 1
p67 c3 88 1
p68 c4 53 1
p69 c1 25 1
p70 c2 44 1
p71 c3 22 1
p72 c2 31 1
p73 c4 58 1
p74 c1 64 1
p75 c4 76 1
p76 c1 41 1
p77 c4 35 1
p78 c3 51 1
p79 c1 12 1
p80 c2 27 1
p81 c2 70 1
p82 c2 84 1
p83 c2 6 1
p84 c4 73 1
p85 c4 47 1
p86 c3 35 1
p87 c4 22 1
p88 c1 4 1
p89 c3 90 1
p90 c1 38 1
p91 c4 40 1
p92 c4 68 1
p93 c2 18 1
p94 c4 1 1
p95 c4 44 1
p96 c1 71 1
p97 c2 84 1
p98 c4 9 1
p99 c2 72 1
p100 c3 83 1
p101 c1 70 1
p102 c2 58 1
p103 c3 52 1
p104 c2 22 1
p105 c2 64 1
p106 c3 23 1
p107 c1 78 1
p108 c4 65 1
p109 c1 59 1
p110 c1 87 1
p111 c1 34 1
p112 c4 32 1
p113 c3 57 1
p114 c3 73 1
p115 c4 62 1
p116 c3 51 1
p117 c4 74 1
p118 c1 62 1
p119 c1 48 1
p120 c1 11 1
p121 c4 68 1
p122 c4 19 1
p123 c3 63 1
p124 c1 12 1
p125 c1 35 1
;

param FMAX := 1 ;
param FMIN := 0 ;
param TAD := 0 ;
param TLS := 1 ;
